<number of tasks>
50

<cycle time>
1000

<order strength>
0.195


<task times>
1 222
2 234
3 61
4 38
5 71
6 32
7 100
8 220
9 23
10 191
11 175
12 196
13 22
14 93
15 99
16 329
17 23
18 31
19 104
20 114
21 26
22 263
23 119
24 80
25 94
26 64
27 152
28 142
29 68
30 70
31 96
32 148
33 75
34 224
35 34
36 22
37 47
38 45
39 113
40 45
41 100
42 209
43 87
44 171
45 114
46 190
47 134
48 33
49 200
50 42

<precedence relations>
1,10
2,10
3,10
4,10
5,11
5,17
6,12
6,15
6,16
6,18
7,13
7,14
7,18
7,35
7,41
8,27
10,19
10,20
10,21
10,22
10,23
11,24
12,25
13,26
15,27
18,38
18,50
19,29
19,34
20,35
22,32
23,31
23,32
24,28
25,30
26,30
27,33
28,37
29,36
31,43
34,38
35,38
35,50
36,39
37,41
37,49
38,40
39,42
39,44
39,45
39,46
41,43
41,47
42,48
46,49
46,50

<end>
